Instance Name : r201
Date : 2022-07-21
Solution
Route 1 : 5 83 45 82 47 36 49 46 48
Route 2 : 95 59 92 98 14 38 44 16 61 86 85 99 94 6 96
Route 3 : 2 42 15 57 87 43 37 97 13 58
Route 4 : 27 69 52 18 8 84 17 91 100 93 60 89
Route 5 : 31 63 64 11 19 62 7 88 90 10 20 66 35 32 70 1
Route 6 : 33 65 71 30 51 9 81 79 78 34 50 3 68 26
Route 7 : 28 12 29 76 40 53
Route 8 : 72 39 75 23 67 21 73 41 22 56 74 54 55 4 25 24 80 77
